; benchmark generated from python API
(set-info :status unknown)
(declare-datatypes ((RealState 0)) (((RMk1 (rval1 Real)) (RMk2 (rval2 Real)))))
 (assert
 (forall ((|v17:0| Real) )(forall ((|v16:1| Real) )(forall ((|v15:2| Real) )(forall ((|v14:3| Real) )(forall ((|v13:4| Real) )(forall ((|v12:5| Real) )(exists ((|v11:6_st| RealState) (val!9912 Real) )(exists ((|v10:7_st| RealState) (val!9913 Real) )(exists ((|v9:8_st| RealState) (val!9914 Real) )(exists ((|v8:9_st| RealState) (val!9915 Real) )(exists ((|v7:10_st| RealState) (val!9916 Real) )(exists ((|v6:11_st| RealState) (val!9917 Real) )(forall ((|v5:12| Real) )(forall ((|v4:13| Real) )(forall ((|v3:14| Real) )(forall ((|v2:15| Real) )(forall ((|v1:16| Real) )(forall ((|v0:17| Real) )(let ((?x6152 (- 11.0)))
 (let ((?x1221 (* 10.0 |v17:0|)))
 (let ((?x6828 (- 8.0)))
 (let ((?x8001 (* ?x6828 |v15:2|)))
 (let ((?x6401 (rval2 |v9:8_st|)))
 (let ((?x3556 (* 18.0 ?x6401)))
 (let ((?x6573 (+ (+ (+ (+ (* 15.0 |v4:13|) (* 20.0 |v14:3|)) (* 11.0 |v1:16|)) ?x3556) ?x8001)))
 (let ((?x8076 (- 7.0)))
 (let ((?x8265 (* ?x8076 |v13:4|)))
 (let ((?x2364 (- 3.0)))
 (let ((?x4794 (* ?x2364 |v2:15|)))
 (let ((?x2858 (* 20.0 |v3:14|)))
 (let ((?x7883 (* 8.0 |v0:17|)))
 (let ((?x6002 (+ (+ (+ (* (- 18.0) |v12:5|) (* (- 4.0) ?x6401)) (* ?x6152 |v0:17|)) ?x7883)))
 (let ((?x6758 (* 2.0 |v5:12|)))
 (let ((?x8457 (* 15.0 |v12:5|)))
 (let ((?x7112 (rval2 |v11:6_st|)))
 (let ((?x6866 (* 19.0 ?x7112)))
 (let ((?x8567 (* 0.0 |v16:1|)))
 (let ((?x1549 (+ (+ (+ (* 20.0 |v4:13|) (* 15.0 (rval2 |v7:10_st|))) (* ?x6828 |v17:0|)) ?x8567)))
 (let (($x1376 (or (<= (+ (+ (+ ?x1549 ?x6866) ?x8457) ?x6758) 1.0) (<= (+ (+ (+ ?x6002 ?x2858) ?x4794) ?x8265) 12.0))))
 (let ((?x2821 (* 6.0 |v0:17|)))
 (let ((?x2014 (rval2 |v6:11_st|)))
 (let ((?x1862 (* 14.0 ?x2014)))
 (let ((?x3398 (- 17.0)))
 (let ((?x7979 (* ?x3398 |v2:15|)))
 (let ((?x4934 (- 4.0)))
 (let ((?x3546 (* ?x4934 |v1:16|)))
 (let ((?x5269 (+ (+ (+ (+ (* 16.0 (rval2 |v10:7_st|)) (* 8.0 |v3:14|)) |v12:5|) ?x3546) ?x7979)))
 (let ((?x2579 (- 12.0)))
 (let ((?x7054 (rval2 |v8:9_st|)))
 (let ((?x856 (- 5.0)))
 (let ((?x8476 (* ?x856 ?x7054)))
 (let ((?x719 (* ?x2579 |v16:1|)))
 (let ((?x6921 (* 15.0 |v15:2|)))
 (let ((?x9102 (- 9.0)))
 (let ((?x8079 (* ?x9102 ?x2014)))
 (let ((?x1411 (+ (+ (+ (+ (+ (* 19.0 |v12:5|) (* 5.0 |v17:0|)) ?x3556) ?x8079) ?x6921) ?x719)))
 (let ((?x3686 (* 3.0 |v16:1|)))
 (let ((?x5058 (* 19.0 |v4:13|)))
 (let ((?x6015 (- 2.0)))
 (let ((?x1499 (* ?x6015 |v13:4|)))
 (let ((?x1992 (* 16.0 |v2:15|)))
 (let ((?x173 (+ (+ (+ (+ (* 13.0 |v13:4|) (* ?x2579 |v0:17|)) (* (- 20.0) |v14:3|)) ?x1992) ?x1499)))
 (let ((?x2884 (* ?x9102 |v15:2|)))
 (let ((?x2442 (* ?x2579 |v14:3|)))
 (let ((?x1214 (* 3.0 ?x6401)))
 (let ((?x7408 (+ (+ (+ (* (- 14.0) |v17:0|) (* (- 1.0) ?x2014)) (* 15.0 ?x6401)) ?x1214)))
 (let (($x6782 (and (<= (+ (+ (+ ?x7408 ?x2442) (* (- 16.0) |v17:0|)) ?x2884) ?x4934) (<= (+ (+ ?x173 ?x5058) ?x3686) 1.0))))
 (let (($x6107 (and $x6782 (or (<= (+ ?x1411 ?x8476) ?x2579) (<= (+ (+ ?x5269 ?x1862) ?x2821) 5.0)))))
 (let ((?x3158 (* 18.0 |v5:12|)))
 (let ((?x2124 (* 17.0 |v4:13|)))
 (let ((?x8846 (- 18.0)))
 (let ((?x6647 (* ?x8846 ?x7112)))
 (let ((?x3898 (+ (+ (+ (+ (* ?x6828 |v4:13|) (* ?x4934 |v5:12|)) (* 16.0 ?x7112)) ?x6647) ?x2124)))
 (let ((?x7404 (* ?x6152 ?x2014)))
 (let ((?x2377 (* 18.0 ?x7054)))
 (let ((?x2977 (+ (+ (+ (+ (* 8.0 |v1:16|) (* ?x6828 |v5:12|)) (* ?x2364 |v17:0|)) ?x7054) ?x2377)))
 (let (($x1179 (and (<= (+ (+ ?x2977 ?x7404) (* 6.0 |v12:5|)) ?x6152) (<= (+ (+ ?x3898 (* ?x8076 ?x6401)) ?x3158) ?x2579))))
 (let ((?x8130 (- 6.0)))
 (let ((?x2536 (* ?x8130 |v2:15|)))
 (let ((?x2210 (+ (+ (+ (+ (+ ?x8567 |v15:2|) (* (- 14.0) ?x2014)) (* ?x8846 |v0:17|)) ?x2536) (* 3.0 ?x2014))))
 (let ((?x7845 (rval2 |v10:7_st|)))
 (let ((?x7905 (* 7.0 ?x7845)))
 (let ((?x7954 (* 5.0 |v17:0|)))
 (let ((?x5423 (* ?x856 |v1:16|)))
 (let ((?x3629 (+ (+ (+ (* 17.0 |v14:3|) (* (- 16.0) ?x7112)) (* 11.0 |v12:5|)) (* ?x4934 ?x7112))))
 (let (($x904 (or (<= (+ (+ (+ ?x3629 ?x5423) ?x7954) ?x7905) ?x856) (<= (+ ?x2210 (* ?x4934 (rval2 |v7:10_st|))) 4.0))))
 (let ((?x2950 (* ?x2364 |v12:5|)))
 (let ((?x9230 (* ?x9102 ?x7054)))
 (let ((?x4339 (* 15.0 |v3:14|)))
 (let ((?x7485 (* 13.0 ?x2014)))
 (let ((?x528 (+ (+ (+ (+ (* (- 10.0) |v13:4|) (* ?x6828 ?x7054)) (* 20.0 |v15:2|)) ?x7485) ?x4339)))
 (let ((?x6937 (- 19.0)))
 (let ((?x847 (* ?x6828 |v1:16|)))
 (let ((?x3103 (* 17.0 |v14:3|)))
 (let ((?x2367 (- 14.0)))
 (let ((?x6588 (* ?x2367 |v15:2|)))
 (let ((?x2782 (* 9.0 |v13:4|)))
 (let ((?x606 (+ (+ (+ (* (- 1.0) |v4:13|) (* 12.0 ?x2014)) (* (- 1.0) |v5:12|)) ?x2782)))
 (let (($x7941 (or (<= (+ (+ (+ ?x606 ?x6588) ?x3103) ?x847) ?x6937) (<= (+ (+ ?x528 ?x9230) ?x2950) ?x2579))))
 (let ((?x7369 (- 20.0)))
 (let ((?x7923 (* 20.0 ?x7112)))
 (let ((?x1567 (* ?x6937 |v16:1|)))
 (let ((?x6471 (* 18.0 |v12:5|)))
 (let ((?x5654 (+ (+ (+ (* 13.0 |v2:15|) (* 18.0 ?x7845)) (* 9.0 |v0:17|)) (* (- 10.0) |v16:1|))))
 (let ((?x5355 (* ?x2579 |v3:14|)))
 (let ((?x9043 (* 5.0 |v12:5|)))
 (let ((?x3725 (+ (+ (+ (+ (+ (* ?x6015 |v5:12|) ?x3546) ?x8567) ?x4794) (* ?x9102 |v5:12|)) ?x9043)))
 (let (($x6942 (or (<= (+ ?x3725 ?x5355) 6.0) (<= (+ (+ (+ ?x5654 ?x6471) ?x1567) ?x7923) ?x7369))))
 (let (($x9160 (and (or (or $x6942 $x7941) (or $x904 $x1179)) (or $x6107 (or $x1376 (<= (+ (+ ?x6573 ?x1221) |v14:3|) ?x6152))))))
 (let ((?x2563 (- 15.0)))
 (let ((?x268 (* 20.0 |v17:0|)))
 (let ((?x7108 (- 16.0)))
 (let ((?x1673 (* ?x7108 ?x2014)))
 (let ((?x2770 (* 20.0 |v16:1|)))
 (let ((?x2160 (* 17.0 |v17:0|)))
 (let ((?x6759 (+ (+ (+ (+ (* ?x6015 |v4:13|) (* 8.0 |v12:5|)) (* 12.0 |v15:2|)) ?x2160) ?x2770)))
 (let ((?x3436 (* 6.0 ?x7054)))
 (let ((?x4570 (* 20.0 |v13:4|)))
 (let ((?x8788 (* 13.0 |v17:0|)))
 (let ((?x5628 (+ (+ (+ (+ (* 14.0 |v0:17|) (* ?x6937 |v14:3|)) (* ?x6015 |v17:0|)) ?x8788) ?x4570)))
 (let (($x2347 (or (<= (+ (+ ?x5628 ?x3436) (* ?x7369 |v17:0|)) 18.0) (<= (+ (+ ?x6759 ?x1673) ?x268) ?x2563))))
 (let ((?x5979 (* 14.0 |v5:12|)))
 (let ((?x7808 (* 11.0 ?x6401)))
 (let ((?x6844 (* ?x2563 |v17:0|)))
 (let ((?x2029 (+ (+ (+ (* 0.0 |v3:14|) (* 10.0 |v12:5|)) (* 8.0 (rval2 |v7:10_st|))) (* ?x7108 |v16:1|))))
 (let ((?x5946 (* ?x2367 |v4:13|)))
 (let ((?x6812 (* 19.0 |v3:14|)))
 (let ((?x6306 (* ?x9102 |v3:14|)))
 (let ((?x8539 (+ (+ (+ (+ (* ?x6937 |v5:12|) (* ?x2563 |v15:2|)) (* ?x8076 |v5:12|)) |v13:4|) ?x6306)))
 (let (($x4069 (and (<= (+ (+ ?x8539 ?x6812) ?x5946) 14.0) (<= (+ (+ (+ ?x2029 ?x6844) ?x7808) ?x5979) 10.0))))
 (let ((?x6406 (* 15.0 |v16:1|)))
 (let ((?x5778 (* ?x2579 |v4:13|)))
 (let ((?x4747 (* 13.0 |v2:15|)))
 (let ((?x8621 (+ (+ (+ (+ (+ ?x8788 |v5:12|) (* 7.0 ?x7054)) (* 11.0 |v3:14|)) ?x4747) ?x5778)))
 (let ((?x7754 (* ?x3398 |v16:1|)))
 (let ((?x3081 (- 13.0)))
 (let ((?x9364 (* ?x3081 |v1:16|)))
 (let ((?x2459 (* 7.0 |v2:15|)))
 (let ((?x1092 (+ (+ (+ (+ (* 9.0 |v14:3|) (* 19.0 ?x2014)) ?x6647) (* 3.0 |v12:5|)) ?x2459)))
 (let ((?x7172 (- 10.0)))
 (let ((?x5750 (- 1.0)))
 (let ((?x7761 (* ?x5750 |v1:16|)))
 (let ((?x7048 (* 0.0 |v1:16|)))
 (let ((?x6528 (rval2 |v7:10_st|)))
 (let ((?x4471 (* ?x3398 ?x6528)))
 (let ((?x6829 (+ (+ (+ (+ (* ?x7172 ?x7112) (* ?x8846 ?x7054)) ?x2160) (* ?x7172 ?x6401)) ?x4471)))
 (let (($x7555 (or (<= (+ (+ ?x6829 ?x7048) ?x7761) ?x7172) (<= (+ (+ ?x1092 ?x9364) ?x7754) 19.0))))
 (let ((?x5801 (* ?x7172 ?x6401)))
 (let ((?x3423 (* ?x8130 |v14:3|)))
 (let ((?x5244 (* 9.0 |v16:1|)))
 (let ((?x3475 (* 11.0 ?x2014)))
 (let ((?x4889 (+ (+ (+ (+ (* 12.0 ?x7845) (* ?x7108 |v0:17|)) (* 14.0 |v1:16|)) ?x3475) ?x5244)))
 (let ((?x2423 (* ?x2364 |v3:14|)))
 (let ((?x4957 (* 0.0 ?x7845)))
 (let ((?x2505 (* ?x6828 ?x7054)))
 (let ((?x1466 (+ (+ (+ (* 14.0 |v4:13|) (* 12.0 ?x6401)) (* 14.0 ?x6401)) (* 6.0 ?x7845))))
 (let (($x4641 (and (<= (+ (+ (+ ?x1466 ?x2505) ?x4957) ?x2423) 9.0) (<= (+ (+ ?x4889 ?x3423) ?x5801) ?x3398))))
 (let ((?x262 (* 4.0 |v4:13|)))
 (let ((?x1023 (+ (+ (+ (+ (* ?x7108 |v1:16|) (* 11.0 |v3:14|)) ?x7761) (* 5.0 ?x6401)) (* ?x8076 |v14:3|))))
 (let ((?x5430 (* 19.0 ?x6401)))
 (let ((?x4001 (* 10.0 |v0:17|)))
 (let ((?x3271 (+ (+ (+ (+ (* 0.0 |v3:14|) (* ?x7369 |v5:12|)) ?x8567) (* ?x856 ?x6401)) ?x4001)))
 (let (($x7440 (and (<= (+ (+ ?x3271 ?x5430) (* ?x7369 |v16:1|)) 4.0) (<= (+ (+ ?x1023 ?x262) (* 6.0 ?x6528)) 14.0))))
 (let ((?x5325 (* ?x2364 |v4:13|)))
 (let ((?x3685 (* 10.0 ?x6401)))
 (let ((?x1672 (* 8.0 |v5:12|)))
 (let ((?x2007 (+ (+ (+ (+ (* ?x2563 |v2:15|) (* ?x6015 ?x6528)) (* ?x7108 ?x7112)) ?x1672) ?x3685)))
 (let ((?x8338 (+ (+ (+ (+ (* ?x2367 |v5:12|) (* ?x8846 |v16:1|)) (* ?x2579 |v1:16|)) ?x1567) (* ?x8076 ?x7112))))
 (let (($x658 (or (<= (+ (+ ?x8338 (* ?x856 |v12:5|)) (* ?x7108 |v15:2|)) ?x7369) (<= (+ (+ ?x2007 ?x5325) ?x7954) ?x4934))))
 (let (($x4425 (or (and (and $x658 $x7440) (and $x4641 $x7555)) (and (<= (+ ?x8621 ?x6406) ?x2579) (or $x4069 $x2347)))))
 (let ((?x4678 (* 18.0 |v1:16|)))
 (let ((?x673 (* ?x6152 |v0:17|)))
 (let ((?x7975 (+ (+ (+ (+ ?x4339 (* ?x7172 |v5:12|)) (* ?x2563 ?x6528)) (* 3.0 |v15:2|)) ?x2858)))
 (let ((?x577 (* 20.0 ?x6528)))
 (let ((?x6913 (* ?x2367 |v1:16|)))
 (let ((?x1127 (* 12.0 ?x7845)))
 (let ((?x5515 (* 18.0 |v14:3|)))
 (let ((?x3088 (+ (+ (+ (+ (* 13.0 |v16:1|) (* 5.0 |v16:1|)) (* 4.0 |v3:14|)) ?x5515) ?x1127)))
 (let ((?x382 (* 0.0 ?x7112)))
 (let ((?x3194 (* 8.0 |v4:13|)))
 (let ((?x4643 (+ (+ (+ (+ (* ?x9102 |v5:12|) (* ?x9102 |v13:4|)) (* 6.0 ?x6401)) ?x3194) ?x8476)))
 (let (($x6329 (or (<= (+ (+ ?x4643 (* 6.0 ?x7112)) ?x382) 8.0) (<= (+ (+ ?x3088 ?x6913) ?x577) 19.0))))
 (let ((?x4141 (* 7.0 ?x7054)))
 (let ((?x7147 (* 16.0 |v5:12|)))
 (let ((?x8951 (+ (+ (+ (+ (* ?x6828 |v12:5|) (* 19.0 |v14:3|)) (* 2.0 |v3:14|)) ?x7147) (* 10.0 |v14:3|))))
 (let ((?x5129 (* ?x7369 |v4:13|)))
 (let ((?x2786 (* ?x2563 ?x6401)))
 (let ((?x4755 (+ (+ (+ (+ ?x7754 (* 11.0 |v2:15|)) (* ?x7108 |v5:12|)) (* ?x6152 |v2:15|)) ?x2786)))
 (let (($x2235 (or (<= (+ (+ ?x4755 ?x2884) ?x5129) 11.0) (<= (+ (+ ?x8951 |v16:1|) ?x4141) ?x2367))))
 (let ((?x2357 (* ?x7172 |v2:15|)))
 (let ((?x3449 (* 11.0 |v3:14|)))
 (let ((?x1311 (* 14.0 |v12:5|)))
 (let ((?x5603 (+ (+ (+ (* ?x8076 |v1:16|) (* ?x6937 |v0:17|)) (* 11.0 |v15:2|)) (* ?x3081 ?x6401))))
 (let ((?x8685 (* ?x6937 |v0:17|)))
 (let ((?x7865 (* 11.0 ?x7054)))
 (let ((?x5365 (* 13.0 |v3:14|)))
 (let ((?x7879 (* ?x7369 |v15:2|)))
 (let ((?x8422 (+ (+ (+ (+ (* ?x6015 |v15:2|) (* 17.0 |v16:1|)) (* 19.0 |v17:0|)) ?x7879) ?x5365)))
 (let (($x768 (or (<= (+ (+ ?x8422 ?x7865) ?x8685) ?x8130) (<= (+ (+ (+ ?x5603 ?x1311) ?x3449) ?x2357) ?x8076))))
 (let ((?x4143 (* ?x8130 |v0:17|)))
 (let ((?x9150 (* ?x6015 |v1:16|)))
 (let ((?x657 (* 14.0 |v14:3|)))
 (let ((?x454 (+ (+ (+ (+ (* 11.0 ?x7845) (* 8.0 ?x2014)) (* 12.0 |v4:13|)) ?x657) ?x1127)))
 (let ((?x6493 (* ?x856 ?x6528)))
 (let ((?x1097 (+ (+ (+ (+ (* ?x2563 ?x2014) (* 7.0 |v14:3|)) (* 9.0 ?x7845)) ?x3436) ?x6493)))
 (let (($x2893 (and (<= (+ (+ ?x1097 ?x4957) (* ?x6015 |v12:5|)) ?x8846) (<= (+ (+ ?x454 ?x9150) ?x4143) ?x2364))))
 (let ((?x2549 (* 12.0 |v4:13|)))
 (let ((?x2969 (* ?x2367 |v5:12|)))
 (let ((?x3875 (+ (+ (+ (+ (* ?x9102 ?x7845) ?x6406) (* ?x2579 |v1:16|)) (* ?x6152 |v4:13|)) ?x2969)))
 (let ((?x4642 (* 8.0 |v14:3|)))
 (let ((?x2577 (* ?x8076 ?x2014)))
 (let ((?x1052 (+ (+ (+ (+ (* ?x8076 ?x6528) (* ?x5750 |v2:15|)) (* ?x6828 |v12:5|)) ?x7923) ?x2577)))
 (let ((?x7001 (* 6.0 |v15:2|)))
 (let ((?x7894 (* 4.0 ?x7112)))
 (let ((?x1588 (+ (+ (+ (+ (* 16.0 |v17:0|) ?x5515) (* 3.0 ?x7054)) (* 14.0 |v17:0|)) ?x7894)))
 (let (($x6070 (or (<= (+ (+ ?x1588 ?x7001) ?x7404) ?x7108) (<= (+ (+ ?x1052 ?x4642) ?x4794) 18.0))))
 (let (($x450 (or (and (and $x6070 (<= (+ (+ ?x3875 ?x2549) (* ?x6937 ?x6528)) 20.0)) $x2893) (and (or $x768 $x2235) (or $x6329 (<= (+ (+ ?x7975 ?x673) ?x4678) 15.0))))))
 (let ((?x2165 (+ (+ (+ (* 15.0 ?x6401) (* ?x856 ?x7845)) (* 9.0 ?x6401)) (* 13.0 |v15:2|))))
 (let ((?x144 (* 3.0 |v3:14|)))
 (let ((?x4797 (* ?x2563 |v13:4|)))
 (let ((?x280 (* 20.0 |v5:12|)))
 (let ((?x9048 (* ?x7108 |v3:14|)))
 (let ((?x8341 (+ (+ (+ (+ (* ?x7172 |v4:13|) (* ?x6152 |v16:1|)) (* 3.0 |v13:4|)) ?x9048) ?x280)))
 (let (($x953 (or (<= (+ (+ ?x8341 ?x4797) ?x144) 4.0) (<= (+ (+ (+ ?x2165 ?x3546) (* 8.0 |v16:1|)) (* ?x6828 ?x6401)) 2.0))))
 (let ((?x7607 (* 20.0 |v0:17|)))
 (let ((?x1648 (* 0.0 |v15:2|)))
 (let ((?x1640 (* 7.0 |v17:0|)))
 (let ((?x205 (+ (+ (+ (+ ?x7894 (* 17.0 |v12:5|)) (* 14.0 |v3:14|)) (* ?x8130 |v12:5|)) ?x1640)))
 (let ((?x4187 (* 10.0 |v3:14|)))
 (let ((?x1338 (* 7.0 |v0:17|)))
 (let ((?x3316 (* 5.0 |v3:14|)))
 (let ((?x357 (+ (+ (+ (+ (* ?x3398 |v3:14|) (* 2.0 |v3:14|)) (* ?x7369 ?x7845)) ?x3316) ?x1338)))
 (let (($x2369 (and (<= (+ (+ ?x357 ?x6647) ?x4187) 8.0) (<= (+ (+ ?x205 ?x1648) ?x7607) 20.0))))
 (let ((?x5559 (* ?x8130 ?x6401)))
 (let ((?x840 (+ (+ (+ (+ (* ?x8846 |v1:16|) ?x8001) (* 19.0 |v1:16|)) (* ?x9102 |v2:15|)) ?x2505)))
 (let ((?x5450 (* 6.0 ?x2014)))
 (let ((?x3544 (+ (+ (+ (+ (+ ?x144 (* ?x2579 |v0:17|)) ?x9230) (* 17.0 |v15:2|)) |v14:3|) ?x2505)))
 (let ((?x5239 (* 4.0 ?x2014)))
 (let ((?x8724 (* 17.0 ?x2014)))
 (let ((?x4434 (+ (+ (+ (+ (* ?x8130 |v4:13|) (* ?x8130 |v1:16|)) (* ?x856 |v17:0|)) ?x8724) (* ?x2367 |v16:1|))))
 (let ((?x6714 (* 17.0 ?x7845)))
 (let ((?x4265 (* 13.0 |v12:5|)))
 (let ((?x7035 (* 16.0 ?x6401)))
 (let ((?x3560 (+ (+ (+ (+ (* 8.0 |v3:14|) ?x144) (* ?x8846 |v17:0|)) (* 18.0 |v15:2|)) ?x7035)))
 (let (($x2859 (or (<= (+ (+ ?x3560 ?x4265) ?x6714) ?x7369) (<= (+ (+ ?x4434 (* ?x4934 |v13:4|)) ?x5239) 8.0))))
 (let (($x342 (or $x2859 (or (<= (+ ?x3544 ?x5450) ?x9102) (<= (+ (+ ?x840 ?x5559) ?x3423) 16.0)))))
 (let ((?x6423 (* ?x9102 |v4:13|)))
 (let ((?x3990 (+ (+ (+ (+ ?x8685 (* ?x5750 |v12:5|)) (* ?x856 |v4:13|)) (* ?x4934 |v15:2|)) (* ?x7108 ?x7845))))
 (let ((?x3557 (* 13.0 |v13:4|)))
 (let ((?x5870 (* ?x2579 |v15:2|)))
 (let ((?x8354 (+ (+ (+ (+ (* 5.0 |v1:16|) (* 5.0 |v16:1|)) (* 17.0 ?x7112)) ?x5870) ?x3557)))
 (let (($x7115 (and (<= (+ (+ ?x8354 ?x673) ?x3316) 9.0) (<= (+ (+ ?x3990 ?x6423) ?x7979) 5.0))))
 (let ((?x590 (* 12.0 |v1:16|)))
 (let ((?x9490 (+ (+ (+ (+ ?x4471 (* 6.0 |v13:4|)) (* 0.0 ?x7054)) (* ?x3398 ?x2014)) ?x590)))
 (let ((?x6215 (* 2.0 |v15:2|)))
 (let ((?x8771 (* ?x3081 ?x7845)))
 (let ((?x8821 (+ (+ (+ (+ (* 9.0 ?x7112) ?x5129) (* ?x9102 |v16:1|)) (* ?x8130 ?x7845)) ?x8771)))
 (let (($x3720 (and (<= (+ (+ ?x8821 (* ?x5750 |v17:0|)) ?x6215) 2.0) (<= (+ (+ ?x9490 (* 7.0 ?x6528)) ?x2442) ?x7172))))
 (let ((?x5282 (* 13.0 |v14:3|)))
 (let ((?x3076 (* 3.0 |v0:17|)))
 (let ((?x8752 (* ?x5750 ?x7845)))
 (let ((?x929 (+ (+ (+ (+ (* 8.0 ?x2014) (* ?x3398 |v0:17|)) (* ?x3081 |v13:4|)) ?x8752) ?x3076)))
 (let ((?x5526 (* ?x7108 |v4:13|)))
 (let ((?x70 (* 12.0 ?x7112)))
 (let ((?x6323 (* ?x3398 |v12:5|)))
 (let ((?x7616 (+ (+ (+ (+ (* 15.0 ?x7845) (* 4.0 |v14:3|)) (* 10.0 |v13:4|)) ?x6323) ?x70)))
 (let (($x3944 (and (<= (+ (+ ?x7616 ?x5526) ?x5801) 10.0) (<= (+ (+ ?x929 (* 10.0 ?x7845)) ?x5282) ?x6152))))
 (let ((?x189 (* 14.0 |v13:4|)))
 (let ((?x1916 (+ (+ (+ (+ (* 17.0 |v13:4|) (* ?x5750 |v2:15|)) (* ?x6937 |v5:12|)) ?x2786) (* 19.0 |v13:4|))))
 (let ((?x7735 (* ?x8130 |v1:16|)))
 (let ((?x6096 (* ?x6015 ?x6401)))
 (let ((?x7971 (* ?x5750 ?x7112)))
 (let ((?x6969 (+ (+ (+ (+ ?x6323 (* ?x9102 ?x6528)) (* ?x856 |v4:13|)) (* ?x8846 |v16:1|)) ?x7971)))
 (let (($x4590 (or (<= (+ (+ ?x6969 ?x6096) ?x7735) ?x2579) (<= (+ (+ ?x1916 ?x189) ?x1338) ?x8130))))
 (let (($x1366 (and (and (and $x4590 $x3944) (or $x3720 $x7115)) (or $x342 (and $x2369 $x953)))))
 (let ((?x1553 (* ?x7369 |v14:3|)))
 (let ((?x3833 (+ (+ (+ (+ (+ (+ (* ?x8846 ?x7054) ?x7735) ?x5244) ?x1672) ?x268) ?x1553) ?x3158)))
 (let ((?x2860 (* 16.0 |v4:13|)))
 (let ((?x8120 (+ (+ (+ (+ ?x1127 (* ?x856 ?x7845)) (* ?x856 |v2:15|)) (* 10.0 |v2:15|)) (* ?x6152 ?x7845))))
 (let ((?x8702 (* ?x856 ?x6401)))
 (let ((?x8542 (* ?x7108 |v5:12|)))
 (let ((?x8000 (+ (+ (+ (+ (+ (* 19.0 |v0:17|) (* 0.0 ?x6528)) ?x2549) ?x8542) ?x7404) ?x8542)))
 (let ((?x5806 (+ (+ (+ (+ (+ (* 20.0 ?x6401) ?x7048) (* ?x6015 ?x7054)) ?x6096) ?x5559) (* ?x2364 ?x6528))))
 (let (($x4538 (or (or (<= (+ ?x5806 (* ?x6015 ?x2014)) 6.0) (<= (+ ?x8000 ?x8702) ?x5750)) (or (<= (+ (+ ?x8120 (* ?x3398 ?x6401)) ?x2860) ?x8076) (<= ?x3833 ?x2579)))))
 (let ((?x2231 (* ?x7369 |v0:17|)))
 (let ((?x6367 (+ (+ (+ (+ (* ?x8076 |v16:1|) (* ?x2579 |v17:0|)) (* 14.0 |v16:1|)) ?x2231) (* 2.0 ?x7845))))
 (let ((?x5425 (* 4.0 |v0:17|)))
 (let ((?x1749 (* 13.0 ?x6528)))
 (let ((?x2517 (+ (+ (+ (+ (+ ?x5430 ?x6215) (* 7.0 |v4:13|)) (* ?x3081 ?x7054)) ?x1749) (* ?x7369 ?x6401))))
 (let (($x7659 (and (<= (+ ?x2517 ?x5425) ?x4934) (<= (+ (+ ?x6367 (* ?x3398 ?x7845)) ?x6647) 8.0))))
 (let ((?x6851 (* ?x6015 |v3:14|)))
 (let ((?x6407 (* ?x2367 ?x2014)))
 (let ((?x4545 (* ?x6828 |v17:0|)))
 (let ((?x8641 (+ (+ (+ (+ (* 12.0 |v5:12|) (* ?x4934 |v0:17|)) (* ?x3081 |v13:4|)) ?x4545) ?x6407)))
 (let ((?x4664 (* 16.0 |v17:0|)))
 (let ((?x5197 (* 4.0 |v17:0|)))
 (let ((?x3189 (* 8.0 ?x6528)))
 (let ((?x9085 (+ (+ (+ (+ (* ?x4934 |v4:13|) (* ?x5750 ?x7054)) ?x9048) (* 11.0 |v13:4|)) ?x3189)))
 (let (($x4222 (or (<= (+ (+ ?x9085 ?x5197) ?x4664) 12.0) (<= (+ (+ ?x8641 ?x6851) ?x3686) ?x4934))))
 (let ((?x4935 (* 17.0 |v16:1|)))
 (let ((?x4519 (* ?x5750 |v5:12|)))
 (let ((?x3149 (+ (+ (+ (+ (+ (* 3.0 ?x7845) ?x7879) ?x7735) (* 2.0 |v16:1|)) ?x5325) ?x4519)))
 (let ((?x7563 (* ?x3081 |v17:0|)))
 (let ((?x2102 (+ (+ (+ (+ (* 4.0 ?x6528) (* ?x8076 |v2:15|)) (* 18.0 |v4:13|)) ?x1214) (* 5.0 |v15:2|))))
 (let ((?x739 (* ?x6152 |v4:13|)))
 (let ((?x7370 (* ?x7172 |v0:17|)))
 (let ((?x2213 (+ (+ (+ (+ (* 19.0 |v16:1|) (* ?x6015 ?x7112)) (* ?x2563 |v14:3|)) ?x7370) ?x3194)))
 (let ((?x638 (* 10.0 ?x6528)))
 (let ((?x1371 (* ?x5750 |v2:15|)))
 (let ((?x92 (+ (+ (+ (+ ?x2459 (* 5.0 |v2:15|)) (* 12.0 |v15:2|)) (* 6.0 |v2:15|)) ?x4642)))
 (let (($x7311 (and (<= (+ (+ ?x92 ?x1371) ?x638) ?x3398) (<= (+ (+ ?x2213 ?x1673) ?x739) 0.0))))
 (let (($x7204 (or $x7311 (or (<= (+ (+ ?x2102 ?x8542) ?x7563) 7.0) (<= (+ ?x3149 ?x4935) 15.0)))))
 (let ((?x2208 (* ?x3398 |v1:16|)))
 (let ((?x4473 (* 0.0 |v5:12|)))
 (let ((?x3895 (* ?x2563 |v5:12|)))
 (let ((?x1117 (+ (+ (+ (* 2.0 ?x7112) (* ?x8846 ?x6401)) (* ?x8846 ?x6401)) (* ?x7369 ?x6528))))
 (let ((?x187 (* 5.0 ?x6528)))
 (let ((?x3393 (* 20.0 |v14:3|)))
 (let ((?x7263 (+ (+ (+ (+ (* 12.0 |v5:12|) (* 18.0 |v17:0|)) ?x7923) (* ?x2367 |v14:3|)) ?x3393)))
 (let (($x5072 (and (<= (+ (+ ?x7263 (* ?x9102 |v12:5|)) ?x187) 2.0) (<= (+ (+ (+ ?x1117 ?x3895) ?x4473) ?x2208) ?x6828))))
 (let ((?x2182 (* 2.0 |v17:0|)))
 (let ((?x5568 (+ (+ (+ (+ (+ (+ ?x4473 ?x5870) ?x5244) ?x2884) (* ?x2364 |v5:12|)) ?x382) ?x2182)))
 (let ((?x9413 (* ?x8130 |v15:2|)))
 (let ((?x1684 (+ (+ (+ (+ ?x6921 (* 3.0 |v5:12|)) (* ?x8846 ?x6401)) (* ?x8076 |v16:1|)) (* ?x9102 ?x6401))))
 (let (($x8697 (and (or (and (<= (+ (+ ?x1684 ?x7905) ?x9413) ?x6015) (<= ?x5568 ?x8846)) $x5072) $x7204)))
 (let ((?x2336 (* ?x6015 |v5:12|)))
 (let ((?x1609 (* 2.0 |v3:14|)))
 (let ((?x5207 (+ (+ (+ (+ (+ ?x8265 (* 4.0 ?x7054)) (* 8.0 |v2:15|)) ?x8567) ?x1609) ?x2336)))
 (let ((?x5456 (* ?x5750 |v13:4|)))
 (let ((?x8853 (* 5.0 |v1:16|)))
 (let ((?x7257 (* 4.0 |v15:2|)))
 (let ((?x2191 (+ (+ (+ (+ (* ?x3398 ?x2014) (* 9.0 ?x6401)) (* ?x2579 |v13:4|)) ?x7257) ?x2950)))
 (let ((?x3782 (+ (+ (+ (+ (+ ?x2786 (* ?x8130 ?x2014)) (* 8.0 |v17:0|)) ?x3557) ?x7971) ?x9043)))
 (let (($x1244 (or (and (<= (+ ?x3782 ?x9413) 3.0) (<= (+ (+ ?x2191 ?x8853) ?x5456) 10.0)) (<= (+ ?x5207 ?x6423) ?x2364))))
 (let ((?x2881 (* 16.0 |v1:16|)))
 (let ((?x1583 (+ (+ (+ (+ (* 6.0 |v13:4|) (* 19.0 |v17:0|)) ?x262) (* ?x9102 |v2:15|)) ?x4141)))
 (let ((?x4930 (+ (+ (+ (+ (* 16.0 |v14:3|) (* ?x7369 |v13:4|)) (* ?x6015 ?x7054)) ?x6323) ?x6215)))
 (let ((?x7286 (* ?x4934 |v5:12|)))
 (let ((?x8550 (* 15.0 ?x7112)))
 (let ((?x3337 (* 4.0 |v14:3|)))
 (let ((?x1575 (+ (+ (+ (+ (* ?x856 |v15:2|) (* 4.0 |v3:14|)) (* 6.0 |v16:1|)) ?x3337) ?x7485)))
 (let (($x6792 (or (<= (+ (+ ?x1575 ?x8550) ?x7286) ?x8130) (<= (+ (+ ?x4930 ?x3556) ?x1673) ?x6015))))
 (let ((?x2211 (* 6.0 |v14:3|)))
 (let ((?x6074 (* 11.0 |v12:5|)))
 (let ((?x5218 (* ?x856 ?x7845)))
 (let ((?x3591 (+ (+ (+ (+ (+ ?x719 (* ?x2579 ?x6528)) (* 6.0 |v2:15|)) ?x7048) ?x5218) ?x6074)))
 (let ((?x3951 (* 13.0 |v0:17|)))
 (let ((?x6148 (+ (+ (+ (+ (+ (+ ?x590 ?x6471) ?x4935) ?x7979) (* ?x856 |v4:13|)) ?x3951) ?x6406)))
 (let ((?x9275 (* ?x6015 |v15:2|)))
 (let ((?x4059 (* 20.0 |v4:13|)))
 (let ((?x4681 (+ (+ (+ (+ (+ ?x1992 (* 6.0 |v17:0|)) (* ?x2563 |v0:17|)) ?x2423) ?x4059) ?x6306)))
 (let (($x3492 (or (<= (+ ?x4681 ?x9275) 6.0) (and (or (<= ?x6148 ?x6937) (<= (+ ?x3591 ?x2211) 2.0)) $x6792))))
 (let (($x9250 (and (or $x3492 (and (<= (+ (+ ?x1583 ?x2881) (* 15.0 ?x7054)) ?x8846) $x1244)) (or $x8697 (or (and $x4222 $x7659) $x4538)))))
 (let ((?x8640 (* 15.0 ?x7845)))
 (let ((?x9463 (* ?x7172 ?x7112)))
 (let ((?x1014 (+ (+ (+ (+ (* ?x7172 |v15:2|) (* 12.0 ?x7054)) (* 9.0 ?x6401)) |v4:13|) ?x9463)))
 (let ((?x508 (* 0.0 |v14:3|)))
 (let ((?x6593 (* ?x7369 ?x7845)))
 (let ((?x5822 (+ (+ (+ (+ (* 5.0 |v16:1|) (* ?x2563 ?x7845)) (* ?x3398 |v4:13|)) ?x6593) ?x5430)))
 (let (($x8750 (or (<= (+ (+ ?x5822 ?x6406) ?x508) ?x9102) (<= (+ (+ ?x1014 ?x8640) ?x2577) ?x856))))
 (let ((?x5029 (* 8.0 |v17:0|)))
 (let ((?x8747 (* 9.0 |v3:14|)))
 (let ((?x9344 (+ (+ (+ (+ ?x8752 (* 11.0 ?x6528)) (* 2.0 ?x6528)) (* ?x5750 |v12:5|)) ?x4143)))
 (let ((?x3009 (* ?x2563 ?x2014)))
 (let ((?x3314 (* 14.0 |v15:2|)))
 (let ((?x7463 (+ (+ (+ (+ (+ ?x5425 ?x719) ?x5129) (* 15.0 ?x2014)) (* 13.0 |v16:1|)) ?x3314)))
 (let (($x4650 (or (or (<= (+ ?x7463 ?x3009) ?x7108) (<= (+ (+ ?x9344 ?x8747) ?x5029) ?x7369)) $x8750)))
 (let ((?x9004 (* 8.0 ?x7845)))
 (let ((?x6039 (+ (+ (+ (+ (+ (* 8.0 |v13:4|) ?x5456) (* ?x9102 |v16:1|)) ?x7563) ?x9004) ?x1640)))
 (let ((?x2344 (+ (+ (+ (+ (* ?x2367 |v0:17|) (* 2.0 |v13:4|)) |v17:0|) (* 0.0 |v3:14|)) ?x8685)))
 (let (($x5792 (or (<= (+ (+ ?x2344 (* ?x2563 |v12:5|)) ?x1648) ?x3398) (<= (+ ?x6039 ?x3475) ?x7108))))
 (let ((?x2833 (* 10.0 |v15:2|)))
 (let ((?x9333 (* 9.0 |v1:16|)))
 (let ((?x2498 (+ (+ (+ (+ (* ?x6152 |v16:1|) ?x4642) (* 8.0 |v15:2|)) (* ?x6828 ?x6528)) ?x7048)))
 (let ((?x8403 (* 5.0 |v2:15|)))
 (let ((?x5497 (+ (+ (+ (+ (+ |v15:2| ?x2782) (* ?x8130 |v5:12|)) (* ?x2579 ?x7112)) ?x1499) ?x5526)))
 (let (($x3327 (or (or (<= (+ ?x5497 ?x8403) ?x4934) (<= (+ (+ ?x2498 ?x9333) ?x2833) ?x8130)) $x5792)))
 (let ((?x6370 (* 17.0 |v15:2|)))
 (let ((?x7106 (+ (+ (+ (* ?x2367 |v3:14|) (* ?x8846 |v2:15|)) (* ?x6937 ?x7054)) (* ?x7172 |v12:5|))))
 (let ((?x9307 (* ?x2579 |v17:0|)))
 (let ((?x4493 (* ?x856 ?x2014)))
 (let ((?x6577 (+ (+ (+ (+ (+ (* 7.0 |v1:16|) ?x508) ?x5430) (* ?x4934 ?x7054)) ?x4493) ?x280)))
 (let (($x5951 (and (<= (+ ?x6577 ?x9307) 12.0) (<= (+ (+ (+ ?x7106 ?x6588) ?x6370) ?x2182) ?x3398))))
 (let ((?x7734 (* ?x7172 |v5:12|)))
 (let ((?x2817 (+ (+ (+ (+ (+ (* 5.0 ?x7112) ?x4570) ?x7865) (* 6.0 |v5:12|)) |v2:15|) ?x6647)))
 (let ((?x3943 (* 8.0 ?x2014)))
 (let ((?x2451 (* ?x2367 |v0:17|)))
 (let ((?x1053 (+ (+ (+ (+ ?x4187 (* ?x2563 ?x7054)) (* 19.0 |v15:2|)) (* 18.0 |v15:2|)) |v12:5|)))
 (let (($x5458 (or (or (<= (+ (+ ?x1053 ?x2451) ?x3943) 20.0) (<= (+ ?x2817 ?x7734) ?x7369)) $x5951)))
 (let ((?x7249 (* 3.0 ?x7112)))
 (let ((?x5110 (* 4.0 ?x7054)))
 (let ((?x6541 (* ?x3398 ?x7054)))
 (let ((?x4485 (+ (+ (+ (+ (+ ?x8403 (* 13.0 ?x6401)) ?x8771) (* 19.0 |v0:17|)) ?x6541) ?x5110)))
 (let ((?x8375 (+ (+ (+ (+ (+ ?x6541 ?x4265) ?x1371) (* 9.0 |v12:5|)) (* 14.0 ?x6528)) (* ?x7369 ?x7054))))
 (let ((?x6630 (+ (+ (+ (+ (+ ?x6323 ?x3076) ?x3951) (* ?x6937 |v3:14|)) (* 7.0 |v12:5|)) ?x5197)))
 (let ((?x961 (* ?x2563 ?x7054)))
 (let ((?x8949 (* ?x9102 |v0:17|)))
 (let ((?x9336 (* ?x5750 ?x2014)))
 (let ((?x6621 (+ (+ (+ (+ (* ?x8076 ?x7054) (* ?x6152 |v17:0|)) (* ?x8846 |v14:3|)) ?x9336) ?x8949)))
 (let (($x1171 (and (<= (+ (+ ?x6621 ?x961) (* ?x7108 ?x6528)) ?x5750) (<= (+ ?x6630 ?x9463) 16.0))))
 (let (($x2835 (and $x1171 (and (<= (+ ?x8375 (* ?x8846 |v13:4|)) 14.0) (<= (+ ?x4485 ?x7249) 9.0)))))
 (let ((?x3530 (* 17.0 |v1:16|)))
 (let ((?x1927 (* ?x6152 |v16:1|)))
 (let ((?x9312 (* 5.0 |v4:13|)))
 (let ((?x227 (+ (+ (+ (+ (+ (+ ?x9312 (* ?x8846 ?x2014)) ?x7883) ?x4493) ?x9312) ?x1927) ?x3530)))
 (let ((?x4207 (* 11.0 |v5:12|)))
 (let ((?x6129 (+ (+ (+ (+ ?x6493 (* ?x8076 |v16:1|)) (* 19.0 |v17:0|)) (* ?x4934 ?x6401)) ?x9333)))
 (let ((?x2626 (* 4.0 |v1:16|)))
 (let ((?x8815 (* 19.0 |v0:17|)))
 (let ((?x1725 (+ (+ (+ (+ (* ?x6015 |v2:15|) (* ?x9102 ?x7112)) (* ?x6152 |v17:0|)) ?x508) ?x8815)))
 (let ((?x9362 (* 5.0 ?x7054)))
 (let ((?x5013 (+ (+ (+ (+ (+ (* ?x7108 |v2:15|) (* 2.0 ?x7112)) ?x268) ?x7035) ?x6844) ?x9362)))
 (let (($x3577 (or (or (<= (+ ?x5013 ?x8457) ?x7172) (<= (+ (+ ?x1725 ?x6401) ?x2626) 2.0)) (and (<= (+ (+ ?x6129 (* ?x8076 |v17:0|)) ?x4207) ?x8076) (<= ?x227 19.0)))))
 (let ((?x2816 (+ (+ (+ (+ (+ ?x4797 (* ?x2367 ?x7054)) ?x3436) (* 9.0 |v5:12|)) ?x657) (* ?x2367 ?x7845))))
 (let ((?x5907 (+ (+ (+ (+ ?x4678 ?x2377) (* ?x6152 |v2:15|)) (* 6.0 |v5:12|)) (* ?x2367 |v13:4|))))
 (let (($x8101 (and (<= (+ (+ ?x5907 ?x5239) (* ?x4934 ?x2014)) 12.0) (or (<= (+ ?x2816 ?x8079) ?x2367) $x3577))))
 (let (($x6190 (and (and (and $x8101 (or (and $x2835 $x5458) (and $x3327 $x4650))) $x9250) (and (or $x1366 $x450) (or $x4425 $x9160)))))
 (let (($x4184 (not (= |v6:11_st| (RMk1 val!9917)))))
 (let (($x3947 (not (= |v7:10_st| (RMk1 val!9916)))))
 (let (($x3746 (not (= |v8:9_st| (RMk1 val!9915)))))
 (let (($x3505 (not (= |v9:8_st| (RMk1 val!9914)))))
 (let (($x1202 (not (= |v10:7_st| (RMk1 val!9913)))))
 (let (($x2351 (not (= |v11:6_st| (RMk1 val!9912)))))
 (and $x2351 $x1202 $x3505 $x3746 $x3947 $x4184 $x6190)))))))))))))))))))))))))))))))))))))))))))))))))))))))))))))))))))))))))))))))))))))))))))))))))))))))))))))))))))))))))))))))))))))))))))))))))))))))))))))))))))))))))))))))))))))))))))))))))))))))))))))))))))))))))))))))))))))))))))))))))))))))))))))))))))))))))))))))))))))))))))))))))))))))))))))))))))))))))))))))))))))))))))))))))))))))))))))))))))))))))))))))))))))))))))))))))))))))))))))))))))))))
 )
 )
 )
 )
 )
 )
 )
 )
 )
 )
 )
 )
 )
 )
 )
 )
 )
 )
(check-sat)
